N = 6;
Capacity = 4;
nbVehicles = 6;
maxVisitsPerCustomer = 2;
ItemsPerCustomer = [4, 3, 4, 6, 3, 4];
maxItemsPerCustomer = 6;
binCapacity = 50;
SizesOfItems = [|
  50, 50, 50, 50, 0, 0
| 26, 20, 17, 0, 0, 0
| 31, 29, 27, 16, 0, 0
| 38, 26, 24, 23, 21, 15
| 36, 27, 12, 0, 0, 0
| 38, 32, 22, 16, 0, 0
|];
Distance = [|
  0, 46, 45, 57, 31, 24, 44
| 46, 0, 63, 33, 76, 68, 90
| 45, 63, 0, 45, 48, 61, 61
| 57, 33, 45, 0, 79, 80, 94
| 31, 76, 48, 79, 0, 22, 14
| 24, 68, 61, 80, 22, 0, 28
| 44, 90, 61, 94, 14, 28, 0
|];
